NAME : gaussian_missing_edges_with_de_nei2_nei3_random149.9452.tour
COMMENT : Length = 9452
COMMENT : Found by LKH [Keld Helsgaun] Fri Jul 12 17:21:28 2024
TYPE : TOUR
DIMENSION : 149
TOUR_SECTION
1
5
74
147
33
88
149
31
56
98
58
22
29
21
143
47
140
107
93
71
94
11
101
132
4
46
54
129
62
61
104
86
114
6
100
57
15
99
120
128
38
40
48
17
7
113
73
138
87
111
134
14
59
24
43
18
69
106
23
75
44
70
102
10
103
12
91
126
108
122
66
124
55
84
97
27
28
146
118
83
25
3
85
37
9
112
131
105
49
32
89
145
78
51
82
119
144
68
133
96
20
95
50
77
53
19
42
60
79
81
127
148
136
65
16
92
45
139
39
141
30
67
137
115
8
130
26
13
72
117
63
80
121
35
36
135
34
142
116
123
90
76
41
125
2
110
109
52
64
-1
EOF
